25 40
16 17 3
16 8 2
17 20 3
17 18 1
20 21 4
20 25 2
21 10 5
21 7 2
10 11 1
8 18 2
8 4 3
18 25 5
18 1 2
25 7 4
25 22 5
7 11 2
7 19 5
11 13 3
4 1 5
4 6 5
1 22 2
1 12 4
22 19 1
22 15 3
19 13 5
19 24 3
13 3 5
6 12 4
6 5 3
12 15 2
12 23 5
15 24 4
15 2 4
24 3 2
24 14 2
3 9 1
5 23 5
23 2 3
2 14 1
14 9 4
